networks/zoo_7_7/zoo_7_7.sol
<?xml version = "1.0" encoding="UTF-8" standalone="yes"?>
<CPLEXSolution version="1.2">
 <header
   problemName="networks/zoo_7_7/zoo_7_7.lp"
   solutionName="incumbent"
   solutionIndex="-1"
   objectiveValue="4"
   solutionTypeValue="3"
   solutionTypeString="primal"
   solutionStatusValue="101"
   solutionStatusString="integer optimal solution"
   solutionMethodString="mip"
   primalFeasible="1"
   dualFeasible="1"
   MIPNodes="0"
   MIPIterations="6"
   writeLevel="3"/>
 <quality
   epInt="1.0000000000000001e-05"
   epRHS="9.9999999999999995e-07"
   maxIntInfeas="0"
   maxPrimalInfeas="0"
   maxX="1"
   maxSlack="7"/>
 <variables>
  <variable name="Y(1,2)" index="1" value="1"/>
  <variable name="Y(3,1)" index="14" value="1"/>
  <variable name="Y(4,3)" index="23" value="1"/>
  <variable name="Y(7,1)" index="42" value="1"/>
  <variable name="X(1,2,1)" index="49" value="1"/>
  <variable name="X(1,3,7)" index="62" value="1"/>
  <variable name="X(1,5,3)" index="65" value="1"/>
  <variable name="X(2,1,3)" index="72" value="1"/>
  <variable name="X(2,3,4)" index="80" value="1"/>
  <variable name="X(2,6,1)" index="84" value="1"/>
  <variable name="X(3,7,4)" index="94" value="1"/>
  <variable name="X(4,1,7)" index="104" value="1"/>
  <variable name="C(1,2)" index="106" value="1"/>
  <variable name="C(3,1)" index="110" value="1"/>
  <variable name="C(4,3)" index="112" value="1"/>
  <variable name="C(7,1)" index="119" value="1"/>
 </variables>
</CPLEXSolution>
